10
1 0 31
2 0 10
2 1 18
3 0 18
3 2 26
4 1 5
4 3 35
5 1 36
5 2 14
5 3 36
5 4 27
6 0 32
6 1 18
6 2 24
6 3 38
6 4 37
7 0 17
7 2 29
7 3 7
7 5 6
7 6 7
8 0 33
8 1 36
8 2 2
8 5 40
8 6 32
8 7 28
9 0 17
9 1 9
9 2 36
9 5 26
9 6 27
9 7 35
